
Gurobi 8.1.1 (mac64, Python) logging started Wed Sep 11 20:34:41 2019

Academic license - for non-commercial use only
Optimize a model with 2 rows, 3 columns and 5 nonzeros
Variable types: 0 continuous, 3 integer (3 binary)
Coefficient statistics:
  Matrix range     [1e+00, 3e+00]
  Objective range  [1e+00, 2e+00]
  Bounds range     [1e+00, 1e+00]
  RHS range        [1e+00, 4e+00]
Found heuristic solution: objective 2.0000000
Presolve removed 2 rows and 3 columns
Presolve time: 0.01s
Presolve: All rows and columns removed

Explored 0 nodes (0 simplex iterations) in 0.05 seconds
Thread count was 1 (of 4 available processors)

Solution count 2: 3 2 

Optimal solution found (tolerance 1.00e-04)
Best objective 3.000000000000e+00, best bound 3.000000000000e+00, gap 0.0000%

Gurobi 8.1.1 (mac64, Python) logging started Wed Sep 11 20:49:06 2019

Academic license - for non-commercial use only
Optimize a model with 1 rows, 3 columns and 3 nonzeros
Model has 2 quadratic constraints
Coefficient statistics:
  Matrix range     [1e+00, 1e+00]
  QMatrix range    [1e+00, 1e+00]
  Objective range  [1e+00, 1e+00]
  Bounds range     [0e+00, 0e+00]
  RHS range        [1e+00, 1e+00]
Presolve time: 0.05s
Presolved: 6 rows, 6 columns, 13 nonzeros
Presolved model has 2 second-order cone constraints
Ordering time: 0.00s

Barrier statistics:
 AA' NZ     : 1.500e+01
 Factor NZ  : 2.100e+01
 Factor Ops : 9.100e+01 (less than 1 second per iteration)
 Threads    : 1

                  Objective                Residual
Iter       Primal          Dual         Primal    Dual     Compl     Time
   0   2.38095238e-01  2.38095238e-01  8.33e-17 4.33e-01  9.23e-02     0s
   1   3.20481543e-01  3.62123302e-01  2.78e-17 1.39e-02  7.95e-03     0s
   2   3.26649101e-01  3.28651430e-01  2.02e-14 5.44e-04  3.46e-04     0s
   3   3.26797051e-01  3.27019441e-01  2.56e-13 5.98e-10  2.78e-05     0s
   4   3.26990986e-01  3.26994814e-01  4.81e-13 3.46e-13  4.78e-07     0s
   5   3.26992304e-01  3.26992876e-01  9.02e-11 3.31e-14  7.15e-08     0s

Barrier solved model in 5 iterations and 0.11 seconds
Optimal objective 3.26992304e-01


Gurobi 8.1.1 (mac64, Python) logging started Wed Sep 11 20:59:21 2019

Academic license - for non-commercial use only
Changed value of parameter Method to 1
   Prev: -1  Min: -1  Max: 5  Default: -1
Optimize a model with 1 rows, 30 columns and 30 nonzeros
Model has 465 quadratic objective terms
Coefficient statistics:
  Matrix range     [1e+00, 1e+00]
  Objective range  [0e+00, 0e+00]
  QObjective range [2e-05, 7e-03]
  Bounds range     [0e+00, 0e+00]
  RHS range        [1e+00, 1e+00]
Presolve time: 0.04s
Presolved: 1 rows, 30 columns, 30 nonzeros
Presolved model has 465 quadratic objective terms

Iteration    Objective       Primal Inf.    Dual Inf.      Time
       0    0.0000000e+00   0.000000e+00   0.000000e+00      0s
      13    1.2988951e-04   0.000000e+00   0.000000e+00      0s

Solved in 13 iterations and 0.05 seconds
Optimal objective  1.298895104e-04
Optimize a model with 2 rows, 30 columns and 60 nonzeros
Model has 465 quadratic objective terms
Coefficient statistics:
  Matrix range     [4e-04, 1e+00]
  Objective range  [0e+00, 0e+00]
  QObjective range [2e-05, 7e-03]
  Bounds range     [0e+00, 0e+00]
  RHS range        [7e-03, 1e+00]
Iteration    Objective       Primal Inf.    Dual Inf.      Time
       0    1.2988951e-04   0.000000e+00   0.000000e+00      0s
      19    3.5277508e-04   0.000000e+00   0.000000e+00      0s

Solved in 19 iterations and 0.03 seconds
Optimal objective  3.527750802e-04
